Maximize
obj: x0 + x1 + x2 + x3 + x4 + x5 + x6 + x7 + x8 + x9 + x10 + x11 + x12 + x13 + x14
Subject To
c1: x1 +  <= 1
c2: x1 +  <= 1
c3: x1 +  <= 1
c4: x1 +  <= 1
c5: x1 +  <= 1
c6: x1 +  <= 1
c7: x1 +  <= 1
c8: x1 +  <= 1
c9: x1 +  <= 1
c10: x1 +  <= 1
c11: x1 +  <= 1
c12: x1 +  <= 1
c13: x1 +  <= 1
c14: x1 +  <= 1
c15: x1 +  <= 1
c16:  + x1 +  +  +  +  +  +  +  +  +  +  +  +  +  <= 2
c17:  + x1 +  +  +  +  +  +  +  +  +  +  +  +  +  <= 2
c18:  + x1 +  +  +  +  +  +  +  +  +  +  +  +  +  <= 2
c19:  + x1 +  +  +  +  +  +  +  +  +  +  +  +  +  <= 2
c20:  + x1 +  +  +  +  +  +  +  +  +  +  +  +  +  <= 2
c21:  + x1 +  +  +  +  +  +  +  +  +  +  +  +  +  <= 2
c22:  + x1 +  +  +  +  +  +  +  +  +  +  +  +  +  <= 1
c23:  + x1 +  +  +  +  +  +  +  +  +  +  +  +  +  <= 1
c24:  + x1 +  +  +  +  +  +  +  +  +  +  +  +  +  <= 1
Binary
x0 x1 x2 x3 x4 x5 x6 x7 x8 x9 x10 x11 x12 x13 x14 
End
